(set-info :original "/tmp/sea-vnH0fc/Primes_true-unreach-call_true-no-overflow_false-termination.pp.ms.o.bc")
(set-info :authors "SeaHorn v.0.1.0-rc3")
(declare-rel verifier.error (Bool Bool Bool ))
(declare-rel multiple_of@_call (Int Int ))
(declare-rel multiple_of@.split (Int Int Int ))
(declare-rel multiple_of (Bool Bool Bool Int Int Int ))
(declare-rel is_prime_@_1 (Int Int ))
(declare-rel is_prime_@.split (Int Int Int ))
(declare-rel is_prime_ (Bool Bool Bool Int Int Int ))
(declare-rel is_prime@_call (Int ))
(declare-rel is_prime@.split (Int Int ))
(declare-rel is_prime (Bool Bool Bool Int Int ))
(declare-rel mult@_call (Int Int ))
(declare-rel mult@.split (Int Int Int ))
(declare-rel mult (Bool Bool Bool Int Int Int ))
(declare-rel main@entry ())
(declare-rel main@verifier.error.split ())
(declare-var multiple_of@%_4_0 Int )
(declare-var multiple_of@%_9_0 Int )
(declare-var multiple_of@%_16_0 Int )
(declare-var multiple_of@%_br5_0 Bool )
(declare-var multiple_of@%_br4_0 Bool )
(declare-var multiple_of@%.0_5 Int )
(declare-var multiple_of@%_br2_0 Bool )
(declare-var multiple_of@%_br_0 Bool )
(declare-var multiple_of@%n_0 Int )
(declare-var multiple_of@%m_0 Int )
(declare-var multiple_of@%.0_0 Int )
(declare-var multiple_of@_call_0 Bool )
(declare-var multiple_of@_6_0 Bool )
(declare-var multiple_of@_11_0 Bool )
(declare-var multiple_of@_13_0 Bool )
(declare-var multiple_of@_15_0 Bool )
(declare-var multiple_of@%_br6_0 Int )
(declare-var multiple_of@_8_0 Bool )
(declare-var multiple_of@%_br3_0 Int )
(declare-var multiple_of@_3_0 Bool )
(declare-var multiple_of@%_br1_0 Int )
(declare-var multiple_of@_.0_0 Bool )
(declare-var |tuple(multiple_of@_13_0, multiple_of@_.0_0)| Bool )
(declare-var |tuple(multiple_of@_11_0, multiple_of@_.0_0)| Bool )
(declare-var multiple_of@%.0_1 Int )
(declare-var multiple_of@%.0_2 Int )
(declare-var multiple_of@%.0_3 Int )
(declare-var multiple_of@%.0_4 Int )
(declare-var multiple_of@.split_0 Bool )
(declare-var is_prime_@%_14_0 Int )
(declare-var is_prime_@%_11_0 Int )
(declare-var is_prime_@%_br4_0 Bool )
(declare-var is_prime_@%_br3_0 Bool )
(declare-var is_prime_@%_br2_0 Bool )
(declare-var is_prime_@%_br1_0 Bool )
(declare-var is_prime_@%_br_0 Bool )
(declare-var is_prime_@%.0_6 Int )
(declare-var is_prime_@%n_0 Int )
(declare-var is_prime_@%m_0 Int )
(declare-var is_prime_@%.0_0 Int )
(declare-var is_prime_@_1_0 Bool )
(declare-var is_prime_@%_call_0 Int )
(declare-var is_prime_@_4_0 Bool )
(declare-var is_prime_@_6_0 Bool )
(declare-var is_prime_@_8_0 Bool )
(declare-var is_prime_@_10_0 Bool )
(declare-var is_prime_@_13_0 Bool )
(declare-var is_prime_@%_br5_0 Int )
(declare-var is_prime_@_.0_0 Bool )
(declare-var |tuple(is_prime_@_10_0, is_prime_@_.0_0)| Bool )
(declare-var |tuple(is_prime_@_8_0, is_prime_@_.0_0)| Bool )
(declare-var |tuple(is_prime_@_6_0, is_prime_@_.0_0)| Bool )
(declare-var |tuple(is_prime_@_4_0, is_prime_@_.0_0)| Bool )
(declare-var |tuple(is_prime_@_1_0, is_prime_@_.0_0)| Bool )
(declare-var is_prime_@%.0_1 Int )
(declare-var is_prime_@%.0_2 Int )
(declare-var is_prime_@%.0_3 Int )
(declare-var is_prime_@%.0_4 Int )
(declare-var is_prime_@%.0_5 Int )
(declare-var is_prime_@.split_0 Bool )
(declare-var is_prime@%_2_0 Int )
(declare-var is_prime@%n_0 Int )
(declare-var is_prime@%_br_0 Int )
(declare-var is_prime@_call_0 Bool )
(declare-var is_prime@.split_0 Bool )
(declare-var mult@%_4_0 Int )
(declare-var mult@%_6_0 Int )
(declare-var mult@%_7_0 Int )
(declare-var mult@%n_0 Int )
(declare-var mult@%SwitchLeaf_0 Bool )
(declare-var mult@%SwitchLeaf2_0 Bool )
(declare-var mult@%.0_4 Int )
(declare-var mult@%Pivot_0 Bool )
(declare-var mult@%_br_0 Bool )
(declare-var mult@%m_0 Int )
(declare-var mult@%.0_0 Int )
(declare-var mult@_call_0 Bool )
(declare-var mult@NodeBlock_0 Bool )
(declare-var mult@LeafBlock1_0 Bool )
(declare-var mult@LeafBlock_0 Bool )
(declare-var mult@NewDefault_0 Bool )
(declare-var |tuple(mult@LeafBlock_0, mult@NewDefault_0)| Bool )
(declare-var |tuple(mult@LeafBlock1_0, mult@NewDefault_0)| Bool )
(declare-var mult@%_br2_0 Int )
(declare-var mult@_3_0 Bool )
(declare-var mult@%_br1_0 Int )
(declare-var mult@_.0_0 Bool )
(declare-var |tuple(mult@LeafBlock_0, mult@_.0_0)| Bool )
(declare-var |tuple(mult@LeafBlock1_0, mult@_.0_0)| Bool )
(declare-var mult@%.0_1 Int )
(declare-var mult@%.0_2 Int )
(declare-var mult@%.0_3 Int )
(declare-var mult@.split_0 Bool )
(declare-var main@%_10_0 Int )
(declare-var main@%_11_0 Bool )
(declare-var main@%_12_0 Bool )
(declare-var main@%or.cond3.i_0 Bool )
(declare-var main@%_13_0 Bool )
(declare-var main@%or.cond4.i_0 Bool )
(declare-var main@%.off7.i_0 Int )
(declare-var main@%or.cond2.not.i_0 Bool )
(declare-var main@%_8_0 Bool )
(declare-var main@%or.cond5.i_0 Bool )
(declare-var main@%.off6.i_0 Int )
(declare-var main@%_5_0 Bool )
(declare-var main@%.off.i_0 Int )
(declare-var main@%_1_0 Bool )
(declare-var main@entry_0 Bool )
(declare-var main@%_0_0 Int )
(declare-var main@_bb_0 Bool )
(declare-var main@%_3_0 Int )
(declare-var main@%_4_0 Int )
(declare-var main@_bb1_0 Bool )
(declare-var main@%_7_0 Int )
(declare-var main@_bb2_0 Bool )
(declare-var main@_bb3_0 Bool )
(declare-var main@verifier.error_0 Bool )
(declare-var main@verifier.error.split_0 Bool )
(rule (verifier.error false false false))
(rule (verifier.error false true true))
(rule (verifier.error true false true))
(rule (verifier.error true true true))
(rule (multiple_of true true true multiple_of@%n_0 multiple_of@%m_0 multiple_of@%.0_0))
(rule (multiple_of false
             true
             true
             multiple_of@%n_0
             multiple_of@%m_0
             multiple_of@%.0_0))
(rule (multiple_of false
             false
             false
             multiple_of@%n_0
             multiple_of@%m_0
             multiple_of@%.0_0))
(rule (multiple_of@_call multiple_of@%m_0 multiple_of@%n_0))
(rule (let ((a!1 (and (multiple_of@_call multiple_of@%m_0 multiple_of@%n_0)
                true
                (= multiple_of@%_br_0 (< multiple_of@%m_0 0))
                (=> multiple_of@_6_0 (and multiple_of@_6_0 multiple_of@_call_0))
                (=> (and multiple_of@_6_0 multiple_of@_call_0)
                    (not multiple_of@%_br_0))
                (=> multiple_of@_6_0
                    (= multiple_of@%_br2_0 (< multiple_of@%n_0 0)))
                (=> multiple_of@_11_0 (and multiple_of@_11_0 multiple_of@_6_0))
                (=> (and multiple_of@_11_0 multiple_of@_6_0)
                    (not multiple_of@%_br2_0))
                (=> multiple_of@_11_0
                    (= multiple_of@%_br4_0 (= multiple_of@%m_0 0)))
                (=> multiple_of@_13_0 (and multiple_of@_13_0 multiple_of@_11_0))
                (=> (and multiple_of@_13_0 multiple_of@_11_0)
                    (not multiple_of@%_br4_0))
                (=> multiple_of@_13_0
                    (= multiple_of@%_br5_0 (= multiple_of@%n_0 0)))
                (=> multiple_of@_15_0 (and multiple_of@_15_0 multiple_of@_13_0))
                (=> (and multiple_of@_15_0 multiple_of@_13_0)
                    (not multiple_of@%_br5_0))
                (=> multiple_of@_15_0
                    (= multiple_of@%_16_0 (- multiple_of@%n_0 multiple_of@%m_0)))
                (multiple_of multiple_of@_15_0
                             false
                             false
                             multiple_of@%_16_0
                             multiple_of@%m_0
                             multiple_of@%_br6_0)
                (=> multiple_of@_8_0 (and multiple_of@_8_0 multiple_of@_6_0))
                (=> (and multiple_of@_8_0 multiple_of@_6_0) multiple_of@%_br2_0)
                (=> multiple_of@_8_0
                    (= multiple_of@%_9_0 (- 0 multiple_of@%n_0)))
                (multiple_of multiple_of@_8_0
                             false
                             false
                             multiple_of@%_9_0
                             multiple_of@%m_0
                             multiple_of@%_br3_0)
                (=> multiple_of@_3_0 (and multiple_of@_3_0 multiple_of@_call_0))
                (=> (and multiple_of@_3_0 multiple_of@_call_0)
                    multiple_of@%_br_0)
                (=> multiple_of@_3_0
                    (= multiple_of@%_4_0 (- 0 multiple_of@%m_0)))
                (multiple_of multiple_of@_3_0
                             false
                             false
                             multiple_of@%n_0
                             multiple_of@%_4_0
                             multiple_of@%_br1_0)
                (=> |tuple(multiple_of@_13_0, multiple_of@_.0_0)|
                    multiple_of@_13_0)
                (=> |tuple(multiple_of@_11_0, multiple_of@_.0_0)|
                    multiple_of@_11_0)
                (=> multiple_of@_.0_0
                    (or (and multiple_of@_.0_0 multiple_of@_15_0)
                        (and multiple_of@_13_0
                             |tuple(multiple_of@_13_0, multiple_of@_.0_0)|)
                        (and multiple_of@_11_0
                             |tuple(multiple_of@_11_0, multiple_of@_.0_0)|)
                        (and multiple_of@_.0_0 multiple_of@_8_0)
                        (and multiple_of@_.0_0 multiple_of@_3_0)))
                (=> (and multiple_of@_.0_0 multiple_of@_15_0)
                    (= multiple_of@%.0_0 multiple_of@%_br6_0))
                (=> (and multiple_of@_13_0
                         |tuple(multiple_of@_13_0, multiple_of@_.0_0)|)
                    multiple_of@%_br5_0)
                (=> (and multiple_of@_13_0
                         |tuple(multiple_of@_13_0, multiple_of@_.0_0)|)
                    (= multiple_of@%.0_1 1))
                (=> (and multiple_of@_11_0
                         |tuple(multiple_of@_11_0, multiple_of@_.0_0)|)
                    multiple_of@%_br4_0)
                (=> (and multiple_of@_11_0
                         |tuple(multiple_of@_11_0, multiple_of@_.0_0)|)
                    (= multiple_of@%.0_2 0))
                (=> (and multiple_of@_.0_0 multiple_of@_8_0)
                    (= multiple_of@%.0_3 multiple_of@%_br3_0))
                (=> (and multiple_of@_.0_0 multiple_of@_3_0)
                    (= multiple_of@%.0_4 multiple_of@%_br1_0))
                (=> (and multiple_of@_.0_0 multiple_of@_15_0)
                    (= multiple_of@%.0_5 multiple_of@%.0_0))
                (=> (and multiple_of@_13_0
                         |tuple(multiple_of@_13_0, multiple_of@_.0_0)|)
                    (= multiple_of@%.0_5 multiple_of@%.0_1))
                (=> (and multiple_of@_11_0
                         |tuple(multiple_of@_11_0, multiple_of@_.0_0)|)
                    (= multiple_of@%.0_5 multiple_of@%.0_2))
                (=> (and multiple_of@_.0_0 multiple_of@_8_0)
                    (= multiple_of@%.0_5 multiple_of@%.0_3))
                (=> (and multiple_of@_.0_0 multiple_of@_3_0)
                    (= multiple_of@%.0_5 multiple_of@%.0_4))
                (=> multiple_of@.split_0
                    (and multiple_of@.split_0 multiple_of@_.0_0))
                multiple_of@.split_0)))
  (=> a!1
      (multiple_of@.split multiple_of@%.0_5 multiple_of@%m_0 multiple_of@%n_0))))
(rule (=> (multiple_of@.split multiple_of@%.0_0 multiple_of@%m_0 multiple_of@%n_0)
    (multiple_of true
                 false
                 false
                 multiple_of@%n_0
                 multiple_of@%m_0
                 multiple_of@%.0_0)))
(rule (is_prime_ true true true is_prime_@%n_0 is_prime_@%m_0 is_prime_@%.0_0))
(rule (is_prime_ false true true is_prime_@%n_0 is_prime_@%m_0 is_prime_@%.0_0))
(rule (is_prime_ false false false is_prime_@%n_0 is_prime_@%m_0 is_prime_@%.0_0))
(rule (is_prime_@_1 is_prime_@%m_0 is_prime_@%n_0))
(rule (let ((a!1 (and (is_prime_@_1 is_prime_@%m_0 is_prime_@%n_0)
                true
                (= is_prime_@%_br_0 (< is_prime_@%n_0 2))
                (=> is_prime_@_4_0 (and is_prime_@_4_0 is_prime_@_1_0))
                (=> (and is_prime_@_4_0 is_prime_@_1_0) (not is_prime_@%_br_0))
                (=> is_prime_@_4_0 (= is_prime_@%_br1_0 (= is_prime_@%n_0 2)))
                (=> is_prime_@_6_0 (and is_prime_@_6_0 is_prime_@_4_0))
                (=> (and is_prime_@_6_0 is_prime_@_4_0) (not is_prime_@%_br1_0))
                (=> is_prime_@_6_0 (= is_prime_@%_br2_0 (> is_prime_@%n_0 2)))
                (=> is_prime_@_8_0 (and is_prime_@_8_0 is_prime_@_6_0))
                (=> (and is_prime_@_8_0 is_prime_@_6_0) is_prime_@%_br2_0)
                (=> is_prime_@_8_0 (= is_prime_@%_br3_0 (< is_prime_@%m_0 2)))
                (=> is_prime_@_10_0 (and is_prime_@_10_0 is_prime_@_8_0))
                (=> (and is_prime_@_10_0 is_prime_@_8_0)
                    (not is_prime_@%_br3_0))
                (multiple_of is_prime_@_10_0
                             false
                             false
                             is_prime_@%n_0
                             is_prime_@%m_0
                             is_prime_@%_11_0)
                (=> is_prime_@_10_0
                    (= is_prime_@%_br4_0 (= is_prime_@%_11_0 0)))
                (=> is_prime_@_13_0 (and is_prime_@_13_0 is_prime_@_10_0))
                (=> (and is_prime_@_13_0 is_prime_@_10_0)
                    (not is_prime_@%_br4_0))
                (=> is_prime_@_13_0
                    (= is_prime_@%_14_0 (+ is_prime_@%m_0 (- 1))))
                (is_prime_ is_prime_@_13_0
                           false
                           false
                           is_prime_@%n_0
                           is_prime_@%_14_0
                           is_prime_@%_br5_0)
                (=> |tuple(is_prime_@_10_0, is_prime_@_.0_0)| is_prime_@_10_0)
                (=> |tuple(is_prime_@_8_0, is_prime_@_.0_0)| is_prime_@_8_0)
                (=> |tuple(is_prime_@_6_0, is_prime_@_.0_0)| is_prime_@_6_0)
                (=> |tuple(is_prime_@_4_0, is_prime_@_.0_0)| is_prime_@_4_0)
                (=> |tuple(is_prime_@_1_0, is_prime_@_.0_0)| is_prime_@_1_0)
                (=> is_prime_@_.0_0
                    (or (and is_prime_@_.0_0 is_prime_@_13_0)
                        (and is_prime_@_10_0
                             |tuple(is_prime_@_10_0, is_prime_@_.0_0)|)
                        (and is_prime_@_8_0
                             |tuple(is_prime_@_8_0, is_prime_@_.0_0)|)
                        (and is_prime_@_6_0
                             |tuple(is_prime_@_6_0, is_prime_@_.0_0)|)
                        (and is_prime_@_4_0
                             |tuple(is_prime_@_4_0, is_prime_@_.0_0)|)
                        (and is_prime_@_1_0
                             |tuple(is_prime_@_1_0, is_prime_@_.0_0)|)))
                (=> (and is_prime_@_.0_0 is_prime_@_13_0)
                    (= is_prime_@%.0_0 is_prime_@%_br5_0))
                (=> (and is_prime_@_10_0
                         |tuple(is_prime_@_10_0, is_prime_@_.0_0)|)
                    is_prime_@%_br4_0)
                (=> (and is_prime_@_10_0
                         |tuple(is_prime_@_10_0, is_prime_@_.0_0)|)
                    (= is_prime_@%.0_1 0))
                (=> (and is_prime_@_8_0
                         |tuple(is_prime_@_8_0, is_prime_@_.0_0)|)
                    is_prime_@%_br3_0)
                (=> (and is_prime_@_8_0
                         |tuple(is_prime_@_8_0, is_prime_@_.0_0)|)
                    (= is_prime_@%.0_2 1))
                (=> (and is_prime_@_6_0
                         |tuple(is_prime_@_6_0, is_prime_@_.0_0)|)
                    (not is_prime_@%_br2_0))
                (=> (and is_prime_@_6_0
                         |tuple(is_prime_@_6_0, is_prime_@_.0_0)|)
                    (= is_prime_@%.0_3 is_prime_@%_call_0))
                (=> (and is_prime_@_4_0
                         |tuple(is_prime_@_4_0, is_prime_@_.0_0)|)
                    is_prime_@%_br1_0)
                (=> (and is_prime_@_4_0
                         |tuple(is_prime_@_4_0, is_prime_@_.0_0)|)
                    (= is_prime_@%.0_4 1))
                (=> (and is_prime_@_1_0
                         |tuple(is_prime_@_1_0, is_prime_@_.0_0)|)
                    is_prime_@%_br_0)
                (=> (and is_prime_@_1_0
                         |tuple(is_prime_@_1_0, is_prime_@_.0_0)|)
                    (= is_prime_@%.0_5 0))
                (=> (and is_prime_@_.0_0 is_prime_@_13_0)
                    (= is_prime_@%.0_6 is_prime_@%.0_0))
                (=> (and is_prime_@_10_0
                         |tuple(is_prime_@_10_0, is_prime_@_.0_0)|)
                    (= is_prime_@%.0_6 is_prime_@%.0_1))
                (=> (and is_prime_@_8_0
                         |tuple(is_prime_@_8_0, is_prime_@_.0_0)|)
                    (= is_prime_@%.0_6 is_prime_@%.0_2))
                (=> (and is_prime_@_6_0
                         |tuple(is_prime_@_6_0, is_prime_@_.0_0)|)
                    (= is_prime_@%.0_6 is_prime_@%.0_3))
                (=> (and is_prime_@_4_0
                         |tuple(is_prime_@_4_0, is_prime_@_.0_0)|)
                    (= is_prime_@%.0_6 is_prime_@%.0_4))
                (=> (and is_prime_@_1_0
                         |tuple(is_prime_@_1_0, is_prime_@_.0_0)|)
                    (= is_prime_@%.0_6 is_prime_@%.0_5))
                (=> is_prime_@.split_0 (and is_prime_@.split_0 is_prime_@_.0_0))
                is_prime_@.split_0)))
  (=> a!1 (is_prime_@.split is_prime_@%.0_6 is_prime_@%m_0 is_prime_@%n_0))))
(rule (=> (is_prime_@.split is_prime_@%.0_0 is_prime_@%m_0 is_prime_@%n_0)
    (is_prime_ true false false is_prime_@%n_0 is_prime_@%m_0 is_prime_@%.0_0)))
(rule (is_prime true true true is_prime@%n_0 is_prime@%_br_0))
(rule (is_prime false true true is_prime@%n_0 is_prime@%_br_0))
(rule (is_prime false false false is_prime@%n_0 is_prime@%_br_0))
(rule (is_prime@_call is_prime@%n_0))
(rule (=> (and (is_prime@_call is_prime@%n_0)
         true
         (= is_prime@%_2_0 (+ is_prime@%n_0 (- 1)))
         (is_prime_ true
                    false
                    false
                    is_prime@%n_0
                    is_prime@%_2_0
                    is_prime@%_br_0)
         (=> is_prime@.split_0 (and is_prime@.split_0 is_prime@_call_0))
         is_prime@.split_0)
    (is_prime@.split is_prime@%_br_0 is_prime@%n_0)))
(rule (=> (is_prime@.split is_prime@%_br_0 is_prime@%n_0)
    (is_prime true false false is_prime@%n_0 is_prime@%_br_0)))
(rule (mult true true true mult@%n_0 mult@%m_0 mult@%.0_0))
(rule (mult false true true mult@%n_0 mult@%m_0 mult@%.0_0))
(rule (mult false false false mult@%n_0 mult@%m_0 mult@%.0_0))
(rule (mult@_call mult@%m_0 mult@%n_0))
(rule (let ((a!1 (and (mult@_call mult@%m_0 mult@%n_0)
                true
                (= mult@%_br_0 (< mult@%m_0 0))
                (=> mult@NodeBlock_0 (and mult@NodeBlock_0 mult@_call_0))
                (=> (and mult@NodeBlock_0 mult@_call_0) (not mult@%_br_0))
                (=> mult@NodeBlock_0 (= mult@%Pivot_0 (< mult@%m_0 1)))
                (=> mult@LeafBlock1_0 (and mult@LeafBlock1_0 mult@NodeBlock_0))
                (=> (and mult@LeafBlock1_0 mult@NodeBlock_0)
                    (not mult@%Pivot_0))
                (=> mult@LeafBlock1_0 (= mult@%SwitchLeaf2_0 (= mult@%m_0 1)))
                (=> mult@LeafBlock_0 (and mult@LeafBlock_0 mult@NodeBlock_0))
                (=> (and mult@LeafBlock_0 mult@NodeBlock_0) mult@%Pivot_0)
                (=> mult@LeafBlock_0 (= mult@%SwitchLeaf_0 (= mult@%m_0 0)))
                (=> |tuple(mult@LeafBlock_0, mult@NewDefault_0)|
                    mult@LeafBlock_0)
                (=> |tuple(mult@LeafBlock1_0, mult@NewDefault_0)|
                    mult@LeafBlock1_0)
                (=> mult@NewDefault_0
                    (or (and mult@LeafBlock_0
                             |tuple(mult@LeafBlock_0, mult@NewDefault_0)|)
                        (and mult@LeafBlock1_0
                             |tuple(mult@LeafBlock1_0, mult@NewDefault_0)|)))
                (=> (and mult@LeafBlock_0
                         |tuple(mult@LeafBlock_0, mult@NewDefault_0)|)
                    (not mult@%SwitchLeaf_0))
                (=> (and mult@LeafBlock1_0
                         |tuple(mult@LeafBlock1_0, mult@NewDefault_0)|)
                    (not mult@%SwitchLeaf2_0))
                (=> mult@NewDefault_0 (= mult@%_6_0 (+ mult@%m_0 (- 1))))
                (mult mult@NewDefault_0
                      false
                      false
                      mult@%n_0
                      mult@%_6_0
                      mult@%_7_0)
                (=> mult@NewDefault_0 (= mult@%_br2_0 (+ mult@%_7_0 mult@%n_0)))
                (=> mult@_3_0 (and mult@_3_0 mult@_call_0))
                (=> (and mult@_3_0 mult@_call_0) mult@%_br_0)
                (=> mult@_3_0 (= mult@%_4_0 (- 0 mult@%m_0)))
                (mult mult@_3_0 false false mult@%n_0 mult@%_4_0 mult@%_br1_0)
                (=> |tuple(mult@LeafBlock_0, mult@_.0_0)| mult@LeafBlock_0)
                (=> |tuple(mult@LeafBlock1_0, mult@_.0_0)| mult@LeafBlock1_0)
                (=> mult@_.0_0
                    (or (and mult@_.0_0 mult@NewDefault_0)
                        (and mult@LeafBlock_0
                             |tuple(mult@LeafBlock_0, mult@_.0_0)|)
                        (and mult@LeafBlock1_0
                             |tuple(mult@LeafBlock1_0, mult@_.0_0)|)
                        (and mult@_.0_0 mult@_3_0)))
                (=> (and mult@_.0_0 mult@NewDefault_0)
                    (= mult@%.0_0 mult@%_br2_0))
                (=> (and mult@LeafBlock_0 |tuple(mult@LeafBlock_0, mult@_.0_0)|)
                    mult@%SwitchLeaf_0)
                (=> (and mult@LeafBlock_0 |tuple(mult@LeafBlock_0, mult@_.0_0)|)
                    (= mult@%.0_1 0))
                (=> (and mult@LeafBlock1_0
                         |tuple(mult@LeafBlock1_0, mult@_.0_0)|)
                    mult@%SwitchLeaf2_0)
                (=> (and mult@LeafBlock1_0
                         |tuple(mult@LeafBlock1_0, mult@_.0_0)|)
                    (= mult@%.0_2 1))
                (=> (and mult@_.0_0 mult@_3_0) (= mult@%.0_3 mult@%_br1_0))
                (=> (and mult@_.0_0 mult@NewDefault_0)
                    (= mult@%.0_4 mult@%.0_0))
                (=> (and mult@LeafBlock_0 |tuple(mult@LeafBlock_0, mult@_.0_0)|)
                    (= mult@%.0_4 mult@%.0_1))
                (=> (and mult@LeafBlock1_0
                         |tuple(mult@LeafBlock1_0, mult@_.0_0)|)
                    (= mult@%.0_4 mult@%.0_2))
                (=> (and mult@_.0_0 mult@_3_0) (= mult@%.0_4 mult@%.0_3))
                (=> mult@.split_0 (and mult@.split_0 mult@_.0_0))
                mult@.split_0)))
  (=> a!1 (mult@.split mult@%.0_4 mult@%m_0 mult@%n_0))))
(rule (=> (mult@.split mult@%.0_0 mult@%m_0 mult@%n_0)
    (mult true false false mult@%n_0 mult@%m_0 mult@%.0_0)))
(rule main@entry)
(rule (let ((a!1 (=> main@_bb_0
               (= main@%_5_0
                  (ite (>= main@%.off6.i_0 0) (< 46339 main@%.off6.i_0) true))))
      (a!2 (=> main@_bb1_0
               (= main@%or.cond2.not.i_0
                  (ite (>= main@%.off7.i_0 0) (< main@%.off7.i_0 46340) false)))))
(let ((a!3 (and main@entry
                true
                (= main@%.off.i_0 (+ main@%_0_0 (- 1)))
                (= main@%_1_0
                   (ite (>= main@%.off.i_0 0) (< 46339 main@%.off.i_0) true))
                (not main@%_1_0)
                (=> main@_bb_0 (and main@_bb_0 main@entry_0))
                (is_prime main@_bb_0 false false main@%_0_0 main@%_3_0)
                (=> main@_bb_0 (= main@%.off6.i_0 (+ main@%_4_0 (- 1))))
                a!1
                (=> main@_bb_0 (not main@%_5_0))
                (=> main@_bb1_0 (and main@_bb1_0 main@_bb_0))
                (=> main@_bb1_0 (= main@%.off7.i_0 (+ main@%_7_0 (- 1))))
                a!2
                (=> main@_bb1_0 (= main@%_8_0 (= main@%_3_0 1)))
                (=> main@_bb1_0
                    (= main@%or.cond5.i_0
                       (and main@%or.cond2.not.i_0 main@%_8_0)))
                (=> main@_bb1_0 main@%or.cond5.i_0)
                (=> main@_bb2_0 (and main@_bb2_0 main@_bb1_0))
                (mult main@_bb2_0 false false main@%_4_0 main@%_7_0 main@%_10_0)
                (=> main@_bb2_0 (= main@%_11_0 (= main@%_10_0 main@%_0_0)))
                (=> main@_bb2_0 (= main@%_12_0 (> main@%_4_0 1)))
                (=> main@_bb2_0
                    (= main@%or.cond3.i_0 (and main@%_11_0 main@%_12_0)))
                (=> main@_bb2_0 (= main@%_13_0 (> main@%_7_0 1)))
                (=> main@_bb2_0
                    (= main@%or.cond4.i_0 (and main@%or.cond3.i_0 main@%_13_0)))
                (=> main@_bb2_0 main@%or.cond4.i_0)
                (=> main@_bb3_0 (and main@_bb3_0 main@_bb2_0))
                (=> main@verifier.error_0
                    (and main@verifier.error_0 main@_bb3_0))
                (=> main@verifier.error.split_0
                    (and main@verifier.error.split_0 main@verifier.error_0))
                main@verifier.error.split_0)))
  (=> a!3 main@verifier.error.split))))
(query main@verifier.error.split)

